c FILE /home/rafael/Documents/HappySet/MIHS/inputs/happygen/output/graph_d_regular_k3_p0.3_v100_20241127_084014.txt
c SOURCE This is a d-regular graph formed for the happy graph colouring problem.
c DESCRIPTION It was generated using the problem generator of Rhyd Lewis
c
c GRAPH STATS
c Seed                             = 664703399
c Number of Nodes                  = 100
c Number of colours k              = 3
c Number of pre-assignments        = 30
c Degree of all vertices           = 6
c Density                          = 0.0606061
c 
c The degrees of nodes 1 to 100, respectively, are as follows 
c [6, 6, 6, 6, 6, 6, 6, 6, 6, 6, 6, 6, 6, 6, 6, 6, 6, 6, 6, 6, 6, 6, 6, 6, 6, 6, 
c  6, 6, 6, 6, 6, 6, 6, 6, 6, 6, 6, 6, 6, 6, 6, 6, 6, 6, 6, 6, 6, 6, 6, 6, 6, 
c  6, 6, 6, 6, 6, 6, 6, 6, 6, 6, 6, 6, 6, 6, 6, 6, 6, 6, 6, 6, 6, 6, 6, 6, 6, 
c  6, 6, 6, 6, 6, 6, 6, 6, 6, 6, 6, 6, 6, 6, 6, 6, 6, 6, 6, 6, 6, 6, 6, 6] 
c  
p edge 100 300 3
e 1 4
e 1 22
e 1 37
e 1 39
e 1 54
e 1 65
e 2 35
e 2 43
e 2 61
e 2 82
e 2 85
e 2 99
e 3 19
e 3 28
e 3 58
e 3 65
e 3 91
e 3 99
e 4 39
e 4 55
e 4 80
e 4 87
e 4 98
e 5 16
e 5 52
e 5 57
e 5 64
e 5 77
e 5 96
e 6 23
e 6 25
e 6 36
e 6 45
e 6 62
e 6 100
e 7 20
e 7 36
e 7 61
e 7 69
e 7 80
e 7 81
e 8 13
e 8 24
e 8 25
e 8 26
e 8 57
e 8 60
e 9 23
e 9 35
e 9 38
e 9 80
e 9 98
e 9 99
e 10 21
e 10 56
e 10 61
e 10 71
e 10 81
e 10 89
e 11 14
e 11 59
e 11 74
e 11 75
e 11 76
e 11 84
e 12 27
e 12 38
e 12 47
e 12 52
e 12 53
e 12 55
e 13 22
e 13 28
e 13 43
e 13 46
e 13 77
e 14 16
e 14 17
e 14 50
e 14 52
e 14 67
e 15 33
e 15 41
e 15 45
e 15 46
e 15 56
e 15 100
e 16 22
e 16 55
e 16 66
e 16 90
e 17 39
e 17 44
e 17 53
e 17 86
e 17 93
e 18 29
e 18 38
e 18 49
e 18 72
e 18 74
e 18 82
e 19 56
e 19 65
e 19 77
e 19 96
e 19 97
e 20 70
e 20 79
e 20 83
e 20 86
e 20 89
e 21 43
e 21 48
e 21 60
e 21 67
e 21 89
e 22 47
e 22 79
e 22 97
e 23 31
e 23 48
e 23 62
e 23 96
e 24 42
e 24 74
e 24 77
e 24 92
e 24 95
e 25 31
e 25 32
e 25 73
e 25 83
e 26 33
e 26 34
e 26 63
e 26 70
e 26 89
e 27 53
e 27 79
e 27 81
e 27 88
e 27 96
e 28 53
e 28 54
e 28 68
e 28 92
e 29 39
e 29 74
e 29 84
e 29 85
e 29 94
e 30 35
e 30 58
e 30 72
e 30 77
e 30 79
e 30 95
e 31 34
e 31 44
e 31 72
e 31 90
e 32 76
e 32 79
e 32 80
e 32 84
e 32 85
e 33 38
e 33 45
e 33 51
e 33 73
e 34 45
e 34 48
e 34 58
e 34 72
e 35 44
e 35 83
e 35 87
e 36 51
e 36 73
e 36 76
e 36 95
e 37 61
e 37 73
e 37 74
e 37 82
e 37 98
e 38 49
e 38 99
e 39 62
e 39 87
e 40 46
e 40 63
e 40 84
e 40 91
e 40 94
e 40 97
e 41 51
e 41 63
e 41 81
e 41 86
e 41 94
e 42 43
e 42 68
e 42 75
e 42 80
e 42 81
e 43 78
e 43 92
e 44 55
e 44 68
e 44 81
e 45 66
e 45 79
e 46 58
e 46 83
e 46 95
e 47 49
e 47 72
e 47 87
e 47 90
e 48 57
e 48 68
e 48 88
e 49 50
e 49 91
e 49 93
e 50 68
e 50 69
e 50 90
e 50 97
e 51 53
e 51 92
e 51 100
e 52 55
e 52 66
e 52 67
e 53 66
e 54 61
e 54 70
e 54 75
e 54 78
e 55 60
e 56 87
e 56 94
e 56 100
e 57 61
e 57 72
e 57 84
e 58 64
e 58 82
e 59 60
e 59 76
e 59 80
e 59 94
e 59 96
e 60 63
e 60 91
e 62 74
e 62 89
e 62 95
e 63 67
e 63 78
e 64 85
e 64 87
e 64 88
e 64 91
e 65 71
e 65 86
e 65 98
e 66 75
e 66 88
e 67 78
e 67 82
e 68 82
e 69 70
e 69 76
e 69 78
e 69 95
e 70 71
e 70 85
e 71 83
e 71 90
e 71 93
e 73 92
e 73 93
e 75 86
e 75 89
e 76 92
e 77 98
e 78 100
e 83 88
e 84 93
e 85 94
e 86 90
e 88 100
e 91 97
e 93 96
e 97 99
e 98 99
n 2 1
n 4 1
n 7 2
n 10 2
n 13 3
n 17 1
n 23 3
n 32 1
n 33 3
n 36 2
n 37 3
n 38 3
n 39 1
n 40 1
n 55 1
n 58 1
n 59 1
n 60 1
n 63 1
n 68 2
n 69 2
n 70 2
n 71 2
n 75 1
n 77 3
n 81 2
n 83 2
n 86 1
n 92 2
n 94 1
